4 19 50 1 2
0 200
 1 35.00 35.00 0.00 0.00 0.00 0 0 0 230
 2 41.00 49.00 10.00 10.00 5.00 1 1 1 161 171
 3 35.00 17.00 10.00 7.00 2.00 1 1 1 50 60
 4 55.00 45.00 10.00 13.00 16.00 1 1 1 116 126
 5 55.00 20.00 10.00 19.00 1.00 1 1 1 149 159
 6 15.00 30.00 10.00 26.00 7.00 1 1 1 34 44
 7 25.00 30.00 10.00 3.00 9.00 1 1 1 99 109
 8 20.00 50.00 10.00 5.00 7.00 1 1 1 81 91
 9 10.00 43.00 10.00 9.00 29.00 1 1 1 95 105
 10 55.00 60.00 10.00 16.00 16.00 1 1 1 97 107
 11 30.00 60.00 10.00 16.00 5.00 1 1 1 124 134
 12 20.00 65.00 10.00 12.00 17.00 1 1 1 67 77
 13 50.00 35.00 10.00 19.00 9.00 1 1 1 63 73
 14 30.00 25.00 10.00 23.00 19.00 1 1 1 159 169
 15 15.00 10.00 10.00 20.00 6.00 1 1 1 32 42
 16 30.00 5.00 10.00 8.00 17.00 1 1 1 61 71
 17 10.00 20.00 10.00 19.00 5.00 1 1 1 75 85
 18 5.00 30.00 10.00 2.00 9.00 1 1 1 157 167
 19 20.00 40.00 10.00 12.00 16.00 1 1 1 87 97
 20 15.00 60.00 10.00 17.00 11.00 1 1 1 76 86
 21 45.00 65.00 10.00 9.00 3.00 1 1 1 126 136
 22 45.00 20.00 10.00 11.00 8.00 1 1 1 62 72
 23 45.00 10.00 10.00 18.00 16.00 1 1 1 97 107
 24 55.00 5.00 10.00 29.00 18.00 1 1 1 68 78
 25 65.00 35.00 10.00 3.00 16.00 1 1 1 153 163
 26 65.00 20.00 10.00 6.00 27.00 1 1 1 172 182
 27 45.00 30.00 10.00 17.00 23.00 1 1 1 132 142
 28 35.00 40.00 10.00 16.00 19.00 1 1 1 37 47
 29 41.00 37.00 10.00 16.00 9.00 1 1 1 39 49
 30 64.00 42.00 10.00 9.00 8.00 1 1 1 63 73
 31 40.00 60.00 10.00 21.00 36.00 1 1 1 71 81
 32 31.00 52.00 10.00 27.00 18.00 1 1 1 50 60
 33 35.00 69.00 10.00 23.00 31.00 1 1 1 141 151
 34 53.00 52.00 10.00 11.00 3.00 1 1 1 37 47
 35 65.00 55.00 10.00 14.00 19.00 1 1 1 117 127
 36 63.00 65.00 10.00 8.00 26.00 1 1 1 143 153
 37 2.00 60.00 10.00 5.00 11.00 1 1 1 41 51
 38 20.00 20.00 10.00 8.00 5.00 1 1 1 134 144
 39 5.00 5.00 10.00 16.00 14.00 1 1 1 83 93
 40 60.00 12.00 10.00 31.00 30.00 1 1 1 44 54
 41 40.00 25.00 10.00 9.00 12.00 1 1 1 85 95
 42 42.00 7.00 10.00 5.00 12.00 1 1 1 97 107
 43 24.00 12.00 10.00 5.00 23.00 1 1 1 31 41
 44 23.00 3.00 10.00 7.00 21.00 1 1 1 132 142
 45 11.00 14.00 10.00 18.00 20.00 1 1 1 69 79
 46 6.00 38.00 10.00 16.00 10.00 1 1 1 32 42
 47 2.00 48.00 10.00 1.00 13.00 1 1 1 117 127
 48 8.00 56.00 10.00 27.00 27.00 1 1 1 51 61
 49 13.00 52.00 10.00 36.00 16.00 1 1 1 165 175
 50 6.00 68.00 10.00 30.00 13.00 1 1 1 108 118
 51 47.00 47.00 10.00 13.00 8.00 1 1 1 124 134
